NAME          
ROWS
 N  OBJ
 L  c1
COLUMNS
    MARKER    'MARKER'                 'INTORG'
    x[1]      c1        595
    x[1]      OBJ       -274
    x[2]      c1        921
    x[2]      OBJ       -546
    x[3]      c1        930
    x[3]      OBJ       -536
    x[4]      c1        56
    x[4]      OBJ       -833
    x[5]      c1        579
    x[5]      OBJ       -361
    x[6]      c1        310
    x[6]      OBJ       -702
    x[7]      c1        268
    x[7]      OBJ       -766
    x[8]      c1        97
    x[8]      OBJ       -519
    x[9]      c1        871
    x[9]      OBJ       -251
    x[10]     c1        772
    x[10]     OBJ       -37
    x[11]     c1        13
    x[11]     OBJ       -922
    x[12]     c1        940
    x[12]     OBJ       -774
    x[13]     c1        921
    x[13]     OBJ       -158
    x[14]     c1        409
    x[14]     OBJ       -60
    x[15]     c1        52
    x[15]     OBJ       -901
    x[16]     c1        313
    x[16]     OBJ       -158
    x[17]     c1        500
    x[17]     OBJ       -646
    x[18]     c1        358
    x[18]     OBJ       -833
    x[19]     c1        93
    x[19]     OBJ       -329
    x[20]     c1        111
    x[20]     OBJ       -389
    x[21]     c1        570
    x[21]     OBJ       -236
    x[22]     c1        82
    x[22]     OBJ       -304
    x[23]     c1        859
    x[23]     OBJ       -314
    x[24]     c1        847
    x[24]     OBJ       -560
    x[25]     c1        104
    x[25]     OBJ       -748
    x[26]     c1        441
    x[26]     OBJ       -115
    x[27]     c1        292
    x[27]     OBJ       -973
    x[28]     c1        714
    x[28]     OBJ       -510
    x[29]     c1        146
    x[29]     OBJ       -333
    x[30]     c1        660
    x[30]     OBJ       -339
    x[31]     c1        601
    x[31]     OBJ       -13
    x[32]     c1        526
    x[32]     OBJ       -916
    x[33]     c1        1000
    x[33]     OBJ       -607
    x[34]     c1        383
    x[34]     OBJ       -724
    x[35]     c1        738
    x[35]     OBJ       -755
    x[36]     c1        947
    x[36]     OBJ       -74
    x[37]     c1        520
    x[37]     OBJ       -217
    x[38]     c1        969
    x[38]     OBJ       -877
    x[39]     c1        135
    x[39]     OBJ       -585
    x[40]     c1        276
    x[40]     OBJ       -126
RHS
    rhs       c1        9960
RANGES
BOUNDS
 BV bounds    x[1]
 BV bounds    x[2]
 BV bounds    x[3]
 BV bounds    x[4]
 BV bounds    x[5]
 BV bounds    x[6]
 BV bounds    x[7]
 BV bounds    x[8]
 BV bounds    x[9]
 BV bounds    x[10]
 BV bounds    x[11]
 BV bounds    x[12]
 BV bounds    x[13]
 BV bounds    x[14]
 BV bounds    x[15]
 BV bounds    x[16]
 BV bounds    x[17]
 BV bounds    x[18]
 BV bounds    x[19]
 BV bounds    x[20]
 BV bounds    x[21]
 BV bounds    x[22]
 BV bounds    x[23]
 BV bounds    x[24]
 BV bounds    x[25]
 BV bounds    x[26]
 BV bounds    x[27]
 BV bounds    x[28]
 BV bounds    x[29]
 BV bounds    x[30]
 BV bounds    x[31]
 BV bounds    x[32]
 BV bounds    x[33]
 BV bounds    x[34]
 BV bounds    x[35]
 BV bounds    x[36]
 BV bounds    x[37]
 BV bounds    x[38]
 BV bounds    x[39]
 BV bounds    x[40]
ENDATA
